(set-logic HORN)
(set-info :source |
    Benchmark: C_VC
    Output by Princess (http://www.philipp.ruemmer.org/princess.shtml)
|)
(set-info :status sat)
;===============================================================================
; Encoding of Heap sorts and operations
;-------------------------------------------------------------------------------
(define-sort Addr() Int)
(declare-datatypes ((HeapObject 0) (node 0))
                   (((O_Int (getInt Int)) (O_Addr (getAddr Addr)) (O_node (getnode node)) (defObj))
                   ((node (next Addr) (inner Addr)))))
(declare-datatypes ((AllocResHeap 0) (Heap 0))
                   (((AllocResHeap   (newHeap Heap) (newAddr Addr)))
                    ((HeapCtor (HeapSize Int)
                               (HeapContents (Array Addr HeapObject))))))
(define-fun nullAddr  () Addr 0)
(define-fun defHeapObject    () HeapObject defObj)
(define-fun valid     ((h Heap) (p Addr)) Bool
  (and (>= (HeapSize h) p) (> p 0)))
(define-fun emptyHeap () Heap (
  HeapCtor 0 (( as const (Array Addr HeapObject)) defHeapObject)))
(define-fun read ((h Heap) (p Addr)) HeapObject
  (ite (valid h p)
       (select (HeapContents h) p)
       defHeapObject))
(define-fun write ((h Heap) (p Addr) (o HeapObject)) Heap
  (ite (valid h p)
       (HeapCtor (HeapSize h) (store (HeapContents h) p o))
       h))
(define-fun alloc   ((h Heap) (o HeapObject)) AllocResHeap
  (AllocResHeap (HeapCtor (+ 1 (HeapSize h))
                    (store (HeapContents h) (+ 1 (HeapSize h)) o))
          (+ 1 (HeapSize h))))

;===============================================================================
(declare-fun inv_main11 (Heap Int Int Int Int Addr) Bool)
(declare-fun inv_main26 (Heap Int Int Int Int Addr Int Int Int Addr Int) Bool)
(declare-fun inv_main29 (Heap Int Int Int Int Addr Int Int Int Addr) Bool)
(declare-fun inv_main31 (Heap Int Int Int Int Addr Int Int Int Addr Addr) Bool)
(declare-fun inv_main33 (Heap Int Int Int Int Addr Int Int Int Addr Int Addr) Bool)
(declare-fun inv_main37 (Heap Int Int Int Int Addr Int Int Int Addr Int Addr Addr) Bool)
(declare-fun inv_main40 (Heap Int Int Int Int Addr Int Int Int Addr Int Addr Addr Int) Bool)
(declare-fun inv_main46 (Heap Int Int Int Int Addr Int Int Addr) Bool)
(declare-fun inv_main49 (Heap Int Int Int Int Addr Int Int Addr Addr) Bool)
(declare-fun inv_main5 (Heap Int Int Int Int) Bool)
(declare-fun inv_main51 (Heap Int Int Int Int Addr Int Int Addr Addr) Bool)
(declare-fun inv_main52 (Heap Int Int Int Int Addr Int Int Addr Addr) Bool)
(declare-fun inv_main56 (Heap Int Int Int Int Addr Addr) Bool)
(declare-fun inv_main62 (Heap Int Int Int Int Addr Addr) Bool)
(declare-fun inv_main69 (Heap Int Int Int Int Addr Addr Addr Int) Bool)
(declare-fun inv_main72 (Heap Int Int Int Int Addr Addr Int) Bool)
(declare-fun inv_main8 (Heap Int Int Int Int Addr) Bool)
(declare-fun inv_main84 (Heap Int Int Int Int Addr Addr Addr) Bool)
(declare-fun inv_main85 (Heap Int Int Int Int Addr Addr Addr Addr) Bool)
(declare-fun inv_main88 (Heap Int Int Int Int Addr Addr Addr Addr Addr) Bool)
(declare-fun inv_main92 (Heap Int Int Int Int Addr Addr) Bool)
(assert (forall ((var0 Int) (var1 Int) (var2 Heap)) (or (not (= var2 emptyHeap)) (inv_main5 var2 3 5 var1 var0))))
(assert (forall ((var0 Addr) (var1 Addr) (var2 Int) (var3 Int) (var4 Int) (var5 Heap) (var6 Int) (var7 Heap) (var8 Addr) (var9 Addr) (var10 Addr) (var11 Addr) (var12 Addr) (var13 Int) (var14 Int) (var15 Addr) (var16 Addr) (var17 Int) (var18 Int)) (or (not (and (inv_main85 var7 var17 var14 var3 var2 var1 var8 var12 var10) (and (not (= var0 nullAddr)) (and (and (and (and (and (and (and (and (and (= var5 var7) (= var18 var17)) (= var13 var14)) (= var4 var3)) (= var6 var2)) (= var15 var1)) (= var11 var8)) (= var16 var12)) (= var9 var10)) (= var0 (inner (getnode (read var7 var12)))))))) (inv_main88 var5 var18 var13 var4 var6 var15 var11 var16 var9 var0))))
(assert (forall ((var0 Int) (var1 Int) (var2 Int) (var3 Int) (var4 Addr) (var5 Int) (var6 Heap) (var7 Addr) (var8 Addr) (var9 Heap) (var10 Addr) (var11 Addr) (var12 Int) (var13 Int) (var14 Addr) (var15 Addr) (var16 Heap) (var17 Addr) (var18 Int) (var19 Addr) (var20 Addr) (var21 Addr) (var22 Int) (var23 Addr) (var24 Addr) (var25 Addr) (var26 Addr) (var27 Addr) (var28 Int) (var29 Int) (var30 Int) (var31 Addr)) (or (not (and (inv_main88 var6 var30 var29 var3 var1 var15 var19 var11 var27 var23) (and (not (= var8 nullAddr)) (and (and (and (and (and (and (and (and (and (and (and (= var9 var6) (= var0 var30)) (= var18 var29)) (= var28 var3)) (= var12 var1)) (= var14 var15)) (= var21 var19)) (= var26 var11)) (= var10 var27)) (= var24 var23)) (= var17 (next (getnode (read var6 var23))))) (and (and (and (and (and (and (and (and (and (and (= var16 (write var9 var24 defObj)) (= var5 var0)) (= var13 var18)) (= var22 var28)) (= var2 var12)) (= var20 var14)) (= var25 var21)) (= var31 var26)) (= var4 var10)) (= var7 var24)) (= var8 var17)))))) (inv_main88 var16 var5 var13 var22 var2 var20 var25 var31 var4 var8))))
(assert (forall ((var0 Addr) (var1 Int) (var2 Int) (var3 Addr) (var4 Int) (var5 Heap) (var6 Addr) (var7 Addr) (var8 Addr) (var9 Addr) (var10 Addr) (var11 Int) (var12 Int) (var13 Heap) (var14 Int) (var15 Int) (var16 Int) (var17 Int) (var18 Int)) (or (not (and (inv_main69 var5 var18 var16 var2 var1 var0 var10 var9 var14) (and (and (= 3 var11) (= 5 var12)) (and (not (= var11 var12)) (and (= var8 nullAddr) (and (and (and (and (and (and (and (and (and (= var13 var5) (= var17 var18)) (= var4 var16)) (= var11 var2)) (= var15 var1)) (= var3 var0)) (= var6 var10)) (= var7 var9)) (= var12 var14)) (= var8 (next (getnode (read var5 var9)))))))))) (inv_main56 var13 var17 var4 (+ (+ var11 1) 1) var15 var3 var6))))
(assert (forall ((var0 Addr) (var1 Int) (var2 Int) (var3 Addr) (var4 Int) (var5 Heap) (var6 Addr) (var7 Addr) (var8 Addr) (var9 Addr) (var10 Addr) (var11 Int) (var12 Int) (var13 Heap) (var14 Int) (var15 Int) (var16 Int) (var17 Int) (var18 Int)) (or (not (and (inv_main69 var5 var18 var16 var2 var1 var0 var10 var9 var14) (and (and (= (+ var11 1) var12) (<= 0 (+ (+ var4 (* (- 1) var11)) (- 1)))) (and (or (not (= 3 var11)) (not (= 5 var12))) (and (not (= var11 var12)) (and (= var8 nullAddr) (and (and (and (and (and (and (and (and (and (= var13 var5) (= var17 var18)) (= var4 var16)) (= var11 var2)) (= var15 var1)) (= var3 var0)) (= var6 var10)) (= var7 var9)) (= var12 var14)) (= var8 (next (getnode (read var5 var9))))))))))) (inv_main56 var13 var17 var4 (+ var11 1) var15 var3 var6))))
(assert (forall ((var0 Addr) (var1 Int) (var2 Int) (var3 Heap) (var4 Addr) (var5 Heap) (var6 Addr) (var7 Int) (var8 Addr) (var9 Int) (var10 Int) (var11 Addr) (var12 Int) (var13 Int) (var14 Int)) (or (not (and (inv_main62 var3 var13 var9 var2 var1 var0 var4) (and (and (= (+ var14 1) 0) (<= 0 (+ (+ var7 (* (- 1) var14)) (- 1)))) (and (not (= var14 0)) (and (= var6 nullAddr) (and (and (and (and (and (and (and (= var5 var3) (= var12 var13)) (= var7 var9)) (= var14 var2)) (= var10 var1)) (= var11 var0)) (= var8 var4)) (= var6 (inner (getnode (read var3 var4)))))))))) (inv_main56 var5 var12 var7 (+ var14 1) var10 var11 var8))))
(assert (forall ((var0 Addr) (var1 Int) (var2 Int) (var3 Int) (var4 Addr) (var5 Heap) (var6 Int) (var7 Addr) (var8 Int) (var9 Int) (var10 Addr) (var11 Heap) (var12 Addr) (var13 Int) (var14 Int) (var15 Int) (var16 Int)) (or (not (and (inv_main72 var5 var15 var13 var2 var1 var0 var7 var6) (and (= var12 nullAddr) (and (and (and (and (and (and (and (and (= var11 var5) (= var3 var15)) (= var16 var13)) (= var14 var2)) (= var9 var1)) (= var4 var0)) (= var10 var7)) (= var8 var6)) (= var12 (next (getnode (read var5 var7)))))))) (inv_main56 var11 var3 var16 (+ var14 1) var9 var4 var12))))
(assert (forall ((var0 Addr) (var1 Int) (var2 Int) (var3 Heap) (var4 Int) (var5 Addr) (var6 Int)) (or (not (and (inv_main56 var3 var6 var4 var2 var1 var0 var5) (and (= var5 nullAddr) (and (not (<= 0 (+ (+ var2 (* (- 1) var4)) (- 1)))) (not (= nullAddr var5)))))) (inv_main56 var3 var6 var4 (+ var2 1) var1 var0 var5))))
(assert (forall ((var0 Addr) (var1 Int) (var2 Int) (var3 Heap) (var4 Int) (var5 Int)) (or (not (and (inv_main8 var3 var5 var4 var2 var1 var0) (not (<= 0 (+ var4 (* (- 1) var2)))))) (inv_main56 var3 var5 var4 var5 var1 var0 var0))))
(assert (forall ((var0 Addr) (var1 Addr) (var2 Int) (var3 Int) (var4 Int) (var5 Heap) (var6 Int) (var7 Addr) (var8 Int) (var9 Int) (var10 Int) (var11 Addr) (var12 Addr) (var13 Int) (var14 Addr) (var15 Int) (var16 Int) (var17 Int) (var18 node) (var19 Heap) (var20 Int) (var21 Int) (var22 Int) (var23 Int) (var24 Int) (var25 Addr)) (or (not (and (inv_main33 var5 var22 var16 var4 var2 var25 var20 var9 var13 var11 var15 var1) (and (and (not (= nullAddr var0)) (and (and (and (and (and (and (and (and (and (and (and (and (= var19 (newHeap (alloc var5 (O_node var18)))) (= var21 var22)) (= var8 var16)) (= var6 var4)) (= var3 var2)) (= var7 var25)) (= var10 var20)) (= var24 var9)) (= var17 var13)) (= var12 var11)) (= var23 var15)) (= var14 var1)) (= var0 (newAddr (alloc var5 (O_node var18)))))) (<= 0 (+ var15 (- 1)))))) (inv_main37 var19 var21 var8 var6 var3 var7 var10 var24 var17 var12 var23 var14 var0))))
(assert (forall ((var0 Addr) (var1 Int) (var2 Int) (var3 Int) (var4 Addr) (var5 Heap) (var6 Int) (var7 Addr) (var8 Int) (var9 Int) (var10 Addr) (var11 Heap) (var12 Addr) (var13 Int) (var14 Int) (var15 Int) (var16 Int)) (or (not (and (inv_main72 var5 var15 var13 var2 var1 var0 var7 var6) (and (not (= var12 nullAddr)) (and (and (and (and (and (and (and (and (= var11 var5) (= var3 var15)) (= var16 var13)) (= var14 var2)) (= var9 var1)) (= var4 var0)) (= var10 var7)) (= var8 var6)) (= var12 (next (getnode (read var5 var7)))))))) (inv_main62 var11 var3 var16 var14 var9 var4 var12))))
(assert (forall ((var0 Addr) (var1 Int) (var2 Int) (var3 Heap) (var4 Int) (var5 Addr) (var6 Int)) (or (not (and (inv_main56 var3 var6 var4 var2 var1 var0 var5) (and (not (= var5 nullAddr)) (and (not (<= 0 (+ (+ var2 (* (- 1) var4)) (- 1)))) (not (= nullAddr var5)))))) (inv_main62 var3 var6 var4 var2 var1 var0 var5))))
(assert (forall ((var0 Int) (var1 Addr) (var2 Int) (var3 Int) (var4 Heap) (var5 Heap) (var6 Addr) (var7 Addr) (var8 Int) (var9 Int) (var10 Int) (var11 Addr) (var12 Addr) (var13 Addr) (var14 Int) (var15 Int) (var16 Addr) (var17 Int) (var18 Int) (var19 Int) (var20 Int)) (or (not (and (inv_main52 var5 var19 var15 var3 var2 var1 var18 var8 var16 var12) (and (and (and (and (and (and (and (and (and (and (= var4 var5) (= var9 var19)) (= var17 var15)) (= var10 var3)) (= var20 var2)) (= var6 var1)) (= var14 var18)) (= var0 var8)) (= var13 var16)) (= var11 var12)) (= var7 (next (getnode (read var5 var12))))))) (inv_main49 var4 var9 var17 var10 var20 var6 var14 var0 var13 var7))))
(assert (forall ((var0 Int) (var1 Addr) (var2 Int) (var3 Int) (var4 Int) (var5 Int) (var6 Int) (var7 Int) (var8 Heap) (var9 Int) (var10 Int) (var11 Addr) (var12 Int) (var13 Addr) (var14 Addr) (var15 Int) (var16 Int) (var17 Heap)) (or (not (and (inv_main46 var8 var16 var12 var4 var2 var1 var15 var9 var14) (and (not (= nullAddr var13)) (and (and (and (and (and (and (and (and (= var17 (write var8 var14 (O_node (node nullAddr (inner (getnode (read var8 var14))))))) (= var7 var16)) (= var0 var12)) (= var5 var4)) (= var10 var2)) (= var13 var1)) (= var3 var15)) (= var6 var9)) (= var11 var14))))) (inv_main49 var17 var7 var0 var5 var10 var13 var3 var6 var11 var13))))
(assert (forall ((var0 Int) (var1 Int) (var2 Int) (var3 Int) (var4 Heap) (var5 Int) (var6 Addr) (var7 Addr) (var8 Int) (var9 Addr) (var10 Addr) (var11 Addr) (var12 Heap) (var13 Int) (var14 Addr) (var15 Addr) (var16 Addr) (var17 Int) (var18 Addr) (var19 Int) (var20 Addr) (var21 Addr) (var22 Addr) (var23 Addr) (var24 Int) (var25 Int) (var26 Addr) (var27 Heap) (var28 Int)) (or (not (and (inv_main85 var4 var28 var25 var1 var0 var14 var16 var11 var22) (and (not (= var6 nullAddr)) (and (and (= var21 nullAddr) (and (and (and (and (and (and (and (and (and (= var12 (write var27 var9 defObj)) (= var3 var8)) (= var17 var13)) (= var5 var2)) (= var24 var19)) (= var7 var18)) (= var15 var10)) (= var23 var9)) (= var6 var20)) (= var26 var21))) (and (and (and (and (and (and (and (and (and (= var27 var4) (= var8 var28)) (= var13 var25)) (= var2 var1)) (= var19 var0)) (= var18 var14)) (= var10 var16)) (= var9 var11)) (= var20 var22)) (= var21 (inner (getnode (read var4 var11))))))))) (inv_main84 var12 var3 var17 var5 var24 var7 var15 var6))))
(assert (forall ((var0 Int) (var1 Int) (var2 Addr) (var3 Addr) (var4 Int) (var5 Addr) (var6 Int) (var7 Heap) (var8 Addr) (var9 Addr) (var10 Addr) (var11 Heap) (var12 Addr) (var13 Addr) (var14 Int) (var15 Int) (var16 Addr) (var17 Heap) (var18 Addr) (var19 Addr) (var20 Addr) (var21 Int) (var22 Heap) (var23 Int) (var24 Addr) (var25 Addr) (var26 Addr) (var27 Addr) (var28 Int) (var29 Int) (var30 Addr) (var31 Addr) (var32 Int) (var33 Int) (var34 Addr) (var35 Addr) (var36 Addr) (var37 Int) (var38 Addr) (var39 Int) (var40 Int) (var41 Int)) (or (not (and (inv_main88 var7 var40 var39 var4 var0 var18 var25 var13 var36 var30) (and (not (= var38 nullAddr)) (and (and (= var10 nullAddr) (and (and (and (and (and (and (and (and (and (= var22 (write var17 var2 defObj)) (= var33 var6)) (= var21 var15)) (= var32 var28)) (= var29 var1)) (= var9 var26)) (= var20 var34)) (= var5 var2)) (= var38 var3)) (= var24 var10))) (and (and (and (and (and (and (and (and (and (and (and (= var11 var7) (= var41 var40)) (= var23 var39)) (= var37 var4)) (= var14 var0)) (= var16 var18)) (= var27 var25)) (= var35 var13)) (= var12 var36)) (= var31 var30)) (= var19 (next (getnode (read var7 var30))))) (and (and (and (and (and (and (and (and (and (and (= var17 (write var11 var31 defObj)) (= var6 var41)) (= var15 var23)) (= var28 var37)) (= var1 var14)) (= var26 var16)) (= var34 var27)) (= var2 var35)) (= var3 var12)) (= var8 var31)) (= var10 var19))))))) (inv_main84 var22 var33 var21 var32 var29 var9 var20 var38))))
(assert (forall ((var0 Addr) (var1 Int) (var2 Int) (var3 Heap) (var4 Int) (var5 Addr) (var6 Int)) (or (not (and (inv_main56 var3 var6 var4 var2 var1 var0 var5) (and (not (= var0 nullAddr)) (= nullAddr var5)))) (inv_main84 var3 var6 var4 var2 var1 var0 var5 var0))))
(assert (forall ((var0 Addr) (var1 Int) (var2 Int) (var3 Addr) (var4 Heap) (var5 Int) (var6 Addr) (var7 Int) (var8 Int) (var9 Int)) (or (not (and (inv_main49 var4 var9 var5 var2 var1 var0 var7 var8 var6 var3) (= (next (getnode (read var4 var3))) nullAddr))) (inv_main51 var4 var9 var5 var2 var1 var0 var7 var8 var6 var3))))
(assert (forall ((var0 Addr) (var1 Int) (var2 Int) (var3 Addr) (var4 Heap) (var5 Int) (var6 Addr) (var7 Int) (var8 Int) (var9 Int)) (or (not (and (inv_main49 var4 var9 var5 var2 var1 var0 var7 var8 var6 var3) (not (= (next (getnode (read var4 var3))) nullAddr)))) (inv_main52 var4 var9 var5 var2 var1 var0 var7 var8 var6 var3))))
(assert (forall ((var0 Addr) (var1 Addr) (var2 Int) (var3 Int) (var4 Heap) (var5 Int) (var6 Int) (var7 Addr) (var8 Int) (var9 Int) (var10 Int) (var11 Int) (var12 Int) (var13 Addr)) (or (not (inv_main40 var4 var12 var10 var3 var2 var0 var11 var6 var8 var7 var9 var1 var13 var5)) (inv_main40 var4 var12 var10 var3 var2 var0 var11 var6 var8 var7 var9 var1 var13 var5))))
(assert (forall ((var0 Addr) (var1 Addr) (var2 Int) (var3 Int) (var4 Int) (var5 Int) (var6 Int) (var7 Heap) (var8 Int) (var9 Int) (var10 node) (var11 Int) (var12 Int) (var13 Addr) (var14 Addr) (var15 Int) (var16 Int) (var17 Int) (var18 Addr) (var19 Int) (var20 Int) (var21 Int) (var22 Heap) (var23 Int) (var24 Addr) (var25 Addr)) (or (not (and (inv_main33 var7 var20 var17 var4 var2 var0 var19 var11 var15 var13 var16 var1) (and (and (= nullAddr var14) (and (and (and (and (and (and (and (and (and (and (and (and (= var22 (newHeap (alloc var7 (O_node var10)))) (= var9 var20)) (= var21 var17)) (= var23 var4)) (= var12 var2)) (= var24 var0)) (= var3 var19)) (= var8 var11)) (= var5 var15)) (= var25 var13)) (= var6 var16)) (= var18 var1)) (= var14 (newAddr (alloc var7 (O_node var10)))))) (<= 0 (+ var16 (- 1)))))) (inv_main40 var22 var9 var21 var23 var12 var24 var3 var8 var5 var25 var6 var18 var14 1))))
(assert (forall ((var0 Addr) (var1 Addr) (var2 Int) (var3 Int) (var4 Int) (var5 Int) (var6 Addr) (var7 Heap) (var8 Heap) (var9 Int) (var10 Int) (var11 Int) (var12 Addr) (var13 Int) (var14 Addr) (var15 Int) (var16 Int) (var17 Int) (var18 Int) (var19 Addr) (var20 Addr) (var21 Int) (var22 Int) (var23 Int) (var24 Int) (var25 Addr)) (or (not (and (inv_main37 var7 var23 var17 var3 var2 var0 var22 var9 var13 var12 var16 var1 var25) (and (and (and (and (and (and (and (and (and (and (and (and (= var8 (write var7 var25 (O_node (node var1 (inner (getnode (read var7 var25))))))) (= var10 var23)) (= var21 var17)) (= var15 var3)) (= var11 var2)) (= var20 var0)) (= var24 var22)) (= var4 var9)) (= var18 var13)) (= var6 var12)) (= var5 var16)) (= var14 var1)) (= var19 var25)))) (inv_main33 var8 var10 var21 var15 var11 var20 var24 var4 var18 var6 (+ var5 (- 1)) var19))))
(assert (forall ((var0 Addr) (var1 Int) (var2 Int) (var3 Int) (var4 Heap) (var5 Int) (var6 node) (var7 Addr) (var8 Heap) (var9 Int) (var10 Int) (var11 Int) (var12 Int) (var13 Addr) (var14 Int) (var15 Int) (var16 Int) (var17 Int)) (or (not (and (inv_main11 var4 var15 var11 var2 var1 var0) (and (and (not (= nullAddr var7)) (and (and (and (and (and (and (and (and (and (= var8 (newHeap (alloc var4 (O_node var6)))) (= var9 var15)) (= var5 var11)) (= var3 var2)) (= var14 var1)) (= var13 var0)) (= var17 5)) (= var10 var2)) (= var16 var2)) (= var7 (newAddr (alloc var4 (O_node var6)))))) (and (not (= var12 0)) (<= 0 (+ (+ 10 (* (- 1) var1)) (- 1))))))) (inv_main33 var8 var9 var5 var3 var14 var13 var17 var10 var16 var7 var16 nullAddr))))
(assert (forall ((var0 Addr) (var1 Int) (var2 Int) (var3 Addr) (var4 Heap) (var5 Int) (var6 Addr) (var7 Int)) (or (not (inv_main84 var4 var7 var5 var2 var1 var0 var6 var3)) (inv_main85 var4 var7 var5 var2 var1 var0 var6 var3 (next (getnode (read var4 var3)))))))
(assert (forall ((var0 Addr) (var1 Int) (var2 Int) (var3 Addr) (var4 Int) (var5 Heap) (var6 Addr) (var7 Addr) (var8 Addr) (var9 Addr) (var10 Addr) (var11 Int) (var12 Int) (var13 Heap) (var14 Int) (var15 Int) (var16 Int) (var17 Int) (var18 Int)) (or (not (and (inv_main69 var5 var18 var16 var2 var1 var0 var10 var9 var14) (and (not (= var8 nullAddr)) (and (and (and (and (and (and (and (and (and (= var13 var5) (= var17 var18)) (= var4 var16)) (= var11 var2)) (= var15 var1)) (= var3 var0)) (= var6 var10)) (= var7 var9)) (= var12 var14)) (= var8 (next (getnode (read var5 var9)))))))) (inv_main69 var13 var17 var4 var11 var15 var3 var6 var8 (+ var12 1)))))
(assert (forall ((var0 Addr) (var1 Int) (var2 Int) (var3 Int) (var4 Heap) (var5 Addr) (var6 Addr) (var7 Addr) (var8 Addr) (var9 Int) (var10 Int) (var11 Heap) (var12 Int) (var13 Int) (var14 Int)) (or (not (and (inv_main62 var4 var13 var10 var2 var1 var0 var5) (and (not (= var6 nullAddr)) (and (and (and (and (and (and (and (= var11 var4) (= var9 var13)) (= var14 var10)) (= var12 var2)) (= var3 var1)) (= var7 var0)) (= var8 var5)) (= var6 (inner (getnode (read var4 var5)))))))) (inv_main69 var11 var9 var14 var12 var3 var7 var8 var6 1))))
(assert (forall ((var0 Addr) (var1 Int) (var2 Int) (var3 Addr) (var4 Int) (var5 Heap) (var6 Addr) (var7 Addr) (var8 Addr) (var9 Addr) (var10 Addr) (var11 Int) (var12 Int) (var13 Heap) (var14 Int) (var15 Int) (var16 Int) (var17 Int) (var18 Int)) (or (not (and (inv_main69 var5 var18 var16 var2 var1 var0 var10 var9 var14) (and (or (not (= (+ var11 1) var12)) (not (<= 0 (+ (+ var4 (* (- 1) var11)) (- 1))))) (and (or (not (= 3 var11)) (not (= 5 var12))) (and (not (= var11 var12)) (and (= var8 nullAddr) (and (and (and (and (and (and (and (and (and (= var13 var5) (= var17 var18)) (= var4 var16)) (= var11 var2)) (= var15 var1)) (= var3 var0)) (= var6 var10)) (= var7 var9)) (= var12 var14)) (= var8 (next (getnode (read var5 var9))))))))))) (inv_main92 var13 var17 var4 var11 var15 var3 var6))))
(assert (forall ((var0 Addr) (var1 Int) (var2 Int) (var3 Heap) (var4 Addr) (var5 Heap) (var6 Addr) (var7 Int) (var8 Addr) (var9 Int) (var10 Int) (var11 Addr) (var12 Int) (var13 Int) (var14 Int)) (or (not (and (inv_main62 var3 var13 var9 var2 var1 var0 var4) (and (or (not (= (+ var14 1) 0)) (not (<= 0 (+ (+ var7 (* (- 1) var14)) (- 1))))) (and (not (= var14 0)) (and (= var6 nullAddr) (and (and (and (and (and (and (and (= var5 var3) (= var12 var13)) (= var7 var9)) (= var14 var2)) (= var10 var1)) (= var11 var0)) (= var8 var4)) (= var6 (inner (getnode (read var3 var4)))))))))) (inv_main92 var5 var12 var7 var14 var10 var11 var8))))
(assert (forall ((var0 Addr) (var1 Int) (var2 Int) (var3 Heap) (var4 Int) (var5 Addr) (var6 Int)) (or (not (and (inv_main56 var3 var6 var4 var2 var1 var0 var5) (and (<= 0 (+ (+ var2 (* (- 1) var4)) (- 1))) (not (= nullAddr var5))))) (inv_main92 var3 var6 var4 var2 var1 var0 var5))))
(assert (forall ((var0 Int) (var1 Int) (var2 Addr) (var3 Heap) (var4 Int) (var5 Heap) (var6 Int) (var7 Int) (var8 Int) (var9 Int) (var10 Int)) (or (not (and (inv_main5 var3 var9 var6 var1 var0) (and (and (and (and (and (= var5 var3) (= var4 var9)) (= var8 var6)) (= var10 var1)) (= var7 var0)) (= var2 nullAddr)))) (inv_main8 var5 var4 var8 var4 var7 var2))))
(assert (forall ((var0 Addr) (var1 Int) (var2 Int) (var3 Heap) (var4 Int) (var5 Int)) (or (not (and (inv_main11 var3 var5 var4 var2 var1 var0) (not (<= 0 (+ (+ 10 (* (- 1) var1)) (- 1)))))) (inv_main8 var3 var5 var4 (+ var2 1) var1 var0))))
(assert (forall ((var0 Addr) (var1 Int) (var2 Int) (var3 Int) (var4 Heap) (var5 Int) (var6 Int)) (or (not (and (inv_main11 var4 var6 var5 var2 var1 var0) (and (= var3 0) (<= 0 (+ (+ 10 (* (- 1) var1)) (- 1)))))) (inv_main8 var4 var6 var5 (+ var2 1) var1 var0))))
(assert (forall ((var0 Addr) (var1 Addr) (var2 Int) (var3 Int) (var4 Int) (var5 Heap) (var6 Int) (var7 Addr) (var8 Int) (var9 Int) (var10 Int)) (or (not (inv_main31 var5 var10 var6 var3 var2 var1 var8 var9 var4 var0 var7)) (inv_main29 (write var5 var0 (O_node (node (next (getnode (read var5 var0))) var7))) var10 var6 var3 var2 var1 var8 var9 var4 var0))))
(assert (forall ((var0 Addr) (var1 Int) (var2 Addr) (var3 Int) (var4 Int) (var5 Addr) (var6 Int) (var7 Heap) (var8 Heap) (var9 Int) (var10 Int) (var11 Addr) (var12 Int) (var13 Int) (var14 Int) (var15 Int) (var16 Int) (var17 Int) (var18 Int) (var19 Int)) (or (not (and (inv_main29 var8 var18 var15 var3 var1 var0 var17 var9 var13 var11) (and (and (and (and (and (and (and (and (and (= var7 (write var8 var11 (O_node (node nullAddr (inner (getnode (read var8 var11))))))) (= var12 var18)) (= var6 var15)) (= var10 var3)) (= var16 var1)) (= var2 var0)) (= var19 var17)) (= var4 var9)) (= var14 var13)) (= var5 var11)))) (inv_main46 var7 var12 var6 var10 var16 var2 var19 var4 var5))))
(assert (forall ((var0 Addr) (var1 Addr) (var2 Int) (var3 Int) (var4 Int) (var5 Heap) (var6 Int) (var7 Int) (var8 Int) (var9 Int) (var10 Int)) (or (not (inv_main26 var5 var10 var6 var3 var2 var1 var8 var9 var4 var0 var7)) (inv_main26 var5 var10 var6 var3 var2 var1 var8 var9 var4 var0 var7))))
(assert (forall ((var0 Addr) (var1 Int) (var2 Int) (var3 Heap) (var4 Int) (var5 Int) (var6 Int) (var7 Addr) (var8 Int) (var9 Heap) (var10 Int) (var11 Int) (var12 Int) (var13 Int) (var14 node) (var15 Addr) (var16 Int) (var17 Int)) (or (not (and (inv_main11 var3 var16 var11 var2 var1 var0) (and (and (= nullAddr var15) (and (and (and (and (and (and (and (and (and (= var9 (newHeap (alloc var3 (O_node var14)))) (= var6 var16)) (= var13 var11)) (= var17 var2)) (= var8 var1)) (= var7 var0)) (= var10 5)) (= var4 var2)) (= var5 var2)) (= var15 (newAddr (alloc var3 (O_node var14)))))) (and (not (= var12 0)) (<= 0 (+ (+ 10 (* (- 1) var1)) (- 1))))))) (inv_main26 var9 var6 var13 var17 var8 var7 var10 var4 var5 var15 1))))
(assert (forall ((var0 Addr) (var1 Int) (var2 Int) (var3 Addr) (var4 Int) (var5 Heap) (var6 Addr) (var7 Addr) (var8 Addr) (var9 Addr) (var10 Addr) (var11 Int) (var12 Int) (var13 Heap) (var14 Int) (var15 Int) (var16 Int) (var17 Int) (var18 Int)) (or (not (and (inv_main69 var5 var18 var16 var2 var1 var0 var10 var9 var14) (and (= var11 var12) (and (= var8 nullAddr) (and (and (and (and (and (and (and (and (and (= var13 var5) (= var17 var18)) (= var4 var16)) (= var11 var2)) (= var15 var1)) (= var3 var0)) (= var6 var10)) (= var7 var9)) (= var12 var14)) (= var8 (next (getnode (read var5 var9))))))))) (inv_main72 var13 var17 var4 var11 var15 var3 var6 var12))))
(assert (forall ((var0 Addr) (var1 Int) (var2 Int) (var3 Heap) (var4 Addr) (var5 Heap) (var6 Addr) (var7 Int) (var8 Addr) (var9 Int) (var10 Int) (var11 Addr) (var12 Int) (var13 Int) (var14 Int)) (or (not (and (inv_main62 var3 var13 var9 var2 var1 var0 var4) (and (= var14 0) (and (= var6 nullAddr) (and (and (and (and (and (and (and (= var5 var3) (= var12 var13)) (= var7 var9)) (= var14 var2)) (= var10 var1)) (= var11 var0)) (= var8 var4)) (= var6 (inner (getnode (read var3 var4))))))))) (inv_main72 var5 var12 var7 var14 var10 var11 var8 0))))
(assert (forall ((var0 Addr) (var1 Int) (var2 Int) (var3 Heap) (var4 Int) (var5 Int)) (or (not (and (inv_main8 var3 var5 var4 var2 var1 var0) (<= 0 (+ var4 (* (- 1) var2))))) (inv_main11 var3 var5 var4 var2 0 var0))))
(assert (forall ((var0 Int) (var1 Addr) (var2 Int) (var3 Addr) (var4 Int) (var5 Int) (var6 Heap) (var7 Int) (var8 Int) (var9 Heap) (var10 Int) (var11 Int) (var12 Int) (var13 Addr) (var14 Int) (var15 Addr) (var16 Int) (var17 Int)) (or (not (and (inv_main51 var6 var17 var14 var4 var2 var1 var16 var10 var15 var13) (and (and (and (and (and (and (and (= var9 (write var6 var13 (O_node (node var15 (inner (getnode (read var6 var13))))))) (= var8 var17)) (= var11 var14)) (= var0 var4)) (= var12 var2)) (= var3 var1)) (= var5 var16)) (= var7 var10)))) (inv_main11 var9 var8 var11 var0 (+ var12 1) var3))))
(assert (forall ((var0 Addr) (var1 Int) (var2 Int) (var3 Heap) (var4 Addr) (var5 Int) (var6 Int) (var7 Int) (var8 Int) (var9 Int) (var10 Int) (var11 Addr) (var12 Addr) (var13 Heap) (var14 Int) (var15 Int) (var16 Int) (var17 Int)) (or (not (and (inv_main46 var3 var16 var9 var2 var1 var0 var14 var6 var11) (and (= nullAddr var4) (and (and (and (and (and (and (and (and (= var13 (write var3 var11 (O_node (node nullAddr (inner (getnode (read var3 var11))))))) (= var7 var16)) (= var5 var9)) (= var17 var2)) (= var15 var1)) (= var4 var0)) (= var10 var14)) (= var8 var6)) (= var12 var11))))) (inv_main11 var13 var7 var5 var17 (+ var15 1) var12))))
(assert (forall ((var0 Addr) (var1 Addr) (var2 Int) (var3 Int) (var4 Int) (var5 Int) (var6 Heap) (var7 Int) (var8 Int) (var9 Int) (var10 Int) (var11 Addr)) (or (not (and (inv_main33 var6 var10 var7 var3 var2 var1 var8 var9 var4 var0 var5 var11) (not (<= 0 (+ var5 (- 1)))))) (inv_main31 var6 var10 var7 var3 var2 var1 var8 var9 var4 var0 var11))))
(assert (forall ((var0 Addr) (var1 Addr) (var2 Int) (var3 Int) (var4 Int) (var5 Int) (var6 Heap) (var7 Int) (var8 Int) (var9 Int) (var10 Int) (var11 Addr) (var12 Addr)) (not (and (inv_main37 var6 var10 var7 var3 var2 var1 var8 var9 var4 var0 var5 var12 var11) (not (is-O_node (read var6 var11)))))))
(assert (forall ((var0 Addr) (var1 Addr) (var2 Int) (var3 Int) (var4 Int) (var5 Heap) (var6 Int) (var7 Addr) (var8 Int) (var9 Int) (var10 Int)) (not (and (inv_main31 var5 var10 var6 var3 var2 var1 var8 var9 var4 var0 var7) (not (is-O_node (read var5 var0)))))))
(assert (forall ((var0 Addr) (var1 Addr) (var2 Int) (var3 Int) (var4 Int) (var5 Heap) (var6 Int) (var7 Int) (var8 Int) (var9 Int)) (not (and (inv_main29 var5 var9 var6 var3 var2 var1 var7 var8 var4 var0) (not (is-O_node (read var5 var0)))))))
(assert (forall ((var0 Addr) (var1 Int) (var2 Int) (var3 Heap) (var4 Int) (var5 Addr) (var6 Int) (var7 Int) (var8 Int)) (not (and (inv_main46 var3 var8 var4 var2 var1 var0 var6 var7 var5) (not (is-O_node (read var3 var5)))))))
(assert (forall ((var0 Addr) (var1 Int) (var2 Int) (var3 Addr) (var4 Heap) (var5 Int) (var6 Addr) (var7 Int) (var8 Int) (var9 Int)) (not (and (inv_main49 var4 var9 var5 var2 var1 var0 var7 var8 var6 var3) (not (is-O_node (read var4 var3)))))))
(assert (forall ((var0 Addr) (var1 Int) (var2 Int) (var3 Addr) (var4 Heap) (var5 Int) (var6 Addr) (var7 Int) (var8 Int) (var9 Int)) (not (and (inv_main52 var4 var9 var5 var2 var1 var0 var7 var8 var6 var3) (not (is-O_node (read var4 var3)))))))
(assert (forall ((var0 Addr) (var1 Int) (var2 Int) (var3 Addr) (var4 Heap) (var5 Int) (var6 Addr) (var7 Int) (var8 Int) (var9 Int)) (not (and (inv_main51 var4 var9 var5 var2 var1 var0 var7 var8 var6 var3) (not (is-O_node (read var4 var3)))))))
(assert (forall ((var0 Addr) (var1 Int) (var2 Int) (var3 Heap) (var4 Int) (var5 Addr) (var6 Int)) (not (and (inv_main62 var3 var6 var4 var2 var1 var0 var5) (not (is-O_node (read var3 var5)))))))
(assert (forall ((var0 Addr) (var1 Int) (var2 Int) (var3 Heap) (var4 Int) (var5 Addr) (var6 Addr) (var7 Int) (var8 Int)) (not (and (inv_main69 var3 var8 var4 var2 var1 var0 var6 var5 var7) (not (is-O_node (read var3 var5)))))))
(assert (forall ((var0 Addr) (var1 Int) (var2 Int) (var3 Heap) (var4 Int) (var5 Int) (var6 Addr) (var7 Int)) (not (and (inv_main72 var3 var7 var5 var2 var1 var0 var6 var4) (not (is-O_node (read var3 var6)))))))
(assert (forall ((var0 Addr) (var1 Int) (var2 Int) (var3 Addr) (var4 Heap) (var5 Int) (var6 Addr) (var7 Int)) (not (and (inv_main84 var4 var7 var5 var2 var1 var0 var6 var3) (not (is-O_node (read var4 var3)))))))
(assert (forall ((var0 Addr) (var1 Int) (var2 Int) (var3 Addr) (var4 Addr) (var5 Heap) (var6 Int) (var7 Addr) (var8 Int)) (not (and (inv_main85 var5 var8 var6 var2 var1 var0 var7 var4 var3) (not (is-O_node (read var5 var4)))))))
(assert (forall ((var0 Addr) (var1 Int) (var2 Int) (var3 Addr) (var4 Addr) (var5 Heap) (var6 Int) (var7 Addr) (var8 Addr) (var9 Int)) (not (and (inv_main88 var5 var9 var6 var2 var1 var0 var7 var4 var3 var8) (not (is-O_node (read var5 var8)))))))
(assert (forall ((var0 Addr) (var1 Int) (var2 Int) (var3 Heap) (var4 Int) (var5 Addr) (var6 Int)) (not (inv_main92 var3 var6 var4 var2 var1 var0 var5))))
(check-sat)
